MIN
OBJ:  +1.0000000000000000 th0_0 +100.0000000000000000 th0_1 

SUBJECT TO
SF00000001:  -1.0000000000000000 th0_0 -200.0000000000000000 th0_1  +1.0000000000000000 th1_0 +200.0000000000000000 th1_1 = -100.0000000000000000
SF00000002:  -1.0000000000000000 th0_0 -50.0000000000000000 th0_1  +1.0000000000000000 th2_0 +50.0000000000000000 th2_1 =  -0.0000000000000000

NN00000001:  +1.0000000000000000 th1_0 +200.0000000000000000 th1_1 >= 0
NN00000002:  +1.0000000000000000 th2_0 +50.0000000000000000 th2_1 >= 0

BOUNDS
th0_0 free
th0_1 free
th1_0 free
th1_1 free
th2_0 free
th2_1 free

END
